max: 2.0v1 + 2.0v2  - 3.0v3  - 4.0v4 + 2.0v5  - 2.0v6 + 1.0v7 + 3.0v8 + 4.0v10 + 4.0v11  - 2.0v12 + 1.0v13  - 3.0v14 + 2.0v15  - 4.0v16 + 1.0v17 + 6.0v18  - 1.0v20  - 6.0v21  - 6.0v22  - 3.0v23 + 2.0v24 + 1.0v25  - 2.0v28  - 2.0v29 + 3.0v30 + 2.0v31  - 5.0v32  - 1.0v33  - 5.0v34 + 6.0v35  - 8.0v36 + 2.0v37  - 1.0v38 + 3.0v39 + 1.0v40  - 1.0v41 + 3.0v42  - 3.0v43 + 7.0v44  - 1.0v45 + 5.0v46 + 1.0v47 + 2.0v48 + 2.0v49  - 5.0v50;

1 - v39 + 1 - v21 + 1 - v18 >= 0;
v49 + v11 + 1 - v22 >= 0;
v18 + 1 - v6 + 1 - v33 >= 0;
v5 + v35 + v48 >= 0;
v18 + v26 + v28 >= 0;
v39 + 1 - v3 + 1 - v42 >= 0;
v41 + 1 - v39 + v42 >= 0;
1 - v48 + 1 - v17 + v11 >= 0;
v18 + v39 + v44 >= 0;
1 - v21 + 1 - v25 + 1 - v27 >= 0;
v20 + 1 - v28 + 1 - v44 >= 0;
1 - v42 + 1 - v24 + v23 >= 0;
v38 + v34 + v48 >= 0;
1 - v32 + v10 + v1 >= 0;
v18 + 1 - v42 + v30 >= 0;
1 - v35 + 1 - v9 + 1 - v14 >= 0;
v38 + v17 + 1 - v21 >= 0;
v8 + 1 - v36 + v31 >= 0;
v13 + 1 - v31 + 1 - v12 >= 0;
1 - v16 + v45 + v20 >= 0;
1 - v15 + 1 - v45 + v10 >= 0;
1 - v26 + 1 - v27 + v18 >= 0;
v39 + v5 + v20 >= 0;
1 - v23 + v35 + v33 >= 0;
1 - v2 + v8 + 1 - v30 >= 0;
1 - v11 + v12 + 1 - v40 >= 0;
v15 + 1 - v29 + 1 - v8 >= 0;
v1 + 1 - v31 + 1 - v32 >= 0;
v41 + 1 - v14 + 1 - v20 >= 0;
v33 + 1 - v2 + v39 >= 0;
1 - v43 + 1 - v9 + v18 >= 0;
1 - v22 + v12 + v48 >= 0;
1 - v7 + 1 - v23 + 1 - v4 >= 0;
1 - v24 + v33 + v7 >= 0;
v25 + 1 - v37 + v8 >= 0;
1 - v20 + v42 + v13 >= 0;
v7 + v44 + 1 - v22 >= 0;
1 - v28 + v30 + v17 >= 0;
1 - v25 + 1 - v41 + 1 - v42 >= 0;
1 - v38 + v9 + 1 - v33 >= 0;
v50 + 1 - v41 + 1 - v23 >= 0;
1 - v22 + 1 - v34 + v39 >= 0;
v38 + 1 - v16 + v42 >= 0;
v14 + v22 + 1 - v1 >= 0;
1 - v50 + v42 + v33 >= 0;
1 - v36 + 1 - v4 + v49 >= 0;
1 - v14 + v19 + v2 >= 0;
1 - v22 + v5 + 1 - v14 >= 0;
v31 + v22 + 1 - v40 >= 0;
v7 + v4 + v17 >= 0;
v23 + 1 - v3 + v1 >= 0;
v17 + 1 - v2 + 1 - v34 >= 0;
1 - v36 + 1 - v4 + v39 >= 0;
v35 + 1 - v16 + 1 - v27 >= 0;
v5 + v37 + v2 >= 0;
v24 + 1 - v29 + v22 >= 0;
1 - v45 + v48 + 1 - v6 >= 0;
v13 + v2 + v41 >= 0;
1 - v7 + v35 + v40 >= 0;
1 - v32 + 1 - v13 + v5 >= 0;
v2 + 1 - v7 + v39 >= 0;
v27 + 1 - v17 + v32 >= 0;
v18 + 1 - v34 + 1 - v9 >= 0;
v25 + 1 - v19 + 1 - v23 >= 0;
v39 + v41 + v47 >= 0;
1 - v24 + v31 + v46 >= 0;
v24 + 1 - v38 + v32 >= 0;
1 - v25 + 1 - v10 + 1 - v48 >= 0;
1 - v17 + v2 + 1 - v1 >= 0;
1 - v31 + v48 + 1 - v19 >= 0;
1 - v34 + 1 - v43 + 1 - v22 >= 0;
v44 + v13 + v21 >= 0;
1 - v39 + v42 + 1 - v23 >= 0;
v19 + 1 - v41 + v2 >= 0;
v48 + 1 - v11 + 1 - v8 >= 0;
1 - v8 + 1 - v22 + v20 >= 0;
1 - v13 + v44 + 1 - v21 >= 0;
v47 + 1 - v7 + v30 >= 0;
v20 + 1 - v13 + v45 >= 0;
1 - v32 + 1 - v30 + v36 >= 0;
1 - v16 + 1 - v3 + 1 - v44 >= 0;
v43 + 1 - v45 + v37 >= 0;
1 - v50 + 1 - v25 + v11 >= 0;
1 - v33 + 1 - v13 + 1 - v17 >= 0;
1 - v3 + v15 + v27 >= 0;
v10 + v19 + v24 >= 0;
1 - v47 + v46 + 1 - v50 >= 0;
1 - v37 + 1 - v8 + 1 - v3 >= 0;
v2 + 1 - v19 + 1 - v10 >= 0;
1 - v16 + 1 - v49 + v8 >= 0;
1 - v15 + 1 - v45 + 1 - v30 >= 0;
1 - v44 + 1 - v45 + 1 - v28 >= 0;
v22 + v14 + 1 - v43 >= 0;
1 - v21 + 1 - v13 + 1 - v48 >= 0;
1 - v23 + 1 - v48 + 1 - v43 >= 0;
v42 + 1 - v5 + v23 >= 0;
1 - v4 + 1 - v37 + 1 - v15 >= 0;
v18 + 1 - v2 + v5 >= 0;
1 - v39 + 1 - v47 + v29 >= 0;
v31 + 1 - v49 + 1 - v7 >= 0;
v1 + 1 - v21 + 1 - v2 >= 0;
v44 + 1 - v46 + v31 >= 0;
v50 + v45 + 1 - v13 >= 0;
1 - v20 + 1 - v44 + v36 >= 0;
v8 + 1 - v12 + 1 - v11 >= 0;
v12 + v36 + v11 >= 0;
1 - v7 + v3 + 1 - v48 >= 0;
v48 + v10 + 1 - v21 >= 0;
1 - v49 + 1 - v32 + 1 - v20 >= 0;
v46 + v38 + 1 - v12 >= 0;
v47 + v13 + 1 - v32 >= 0;
v9 + v31 + v42 >= 0;
v33 + 1 - v15 + v11 >= 0;
1 - v28 + v24 + 1 - v6 >= 0;
v47 + v4 + v23 >= 0;
1 - v4 + v7 + v37 >= 0;
v25 + 1 - v22 + v42 >= 0;
1 - v19 + v11 + 1 - v25 >= 0;
v3 + 1 - v41 + 1 - v24 >= 0;
v44 + 1 - v34 + 1 - v36 >= 0;
1 - v40 + 1 - v46 + v2 >= 0;
v37 + v6 + 1 - v29 >= 0;
v41 + 1 - v25 + v13 >= 0;
1 - v23 + v28 + v35 >= 0;
1 - v25 + 1 - v49 + 1 - v1 >= 0;
v30 + v36 + v49 >= 0;
v43 + 1 - v23 + v50 >= 0;
v9 + v35 + v38 >= 0;
v32 + v27 + v2 >= 0;
v32 + v15 + 1 - v33 >= 0;
v2 + v41 + 1 - v27 >= 0;
v49 + v30 + v40 >= 0;
1 - v29 + v8 + v41 >= 0;
1 - v31 + 1 - v38 + 1 - v18 >= 0;
v29 + 1 - v26 + v49 >= 0;
v40 + v49 + v44 >= 0;
1 - v6 + v5 + v30 >= 0;
1 - v48 + v2 + v11 >= 0;
v4 + 1 - v32 + v10 >= 0;
v5 + v6 + 1 - v30 >= 0;
1 - v5 + v6 + 1 - v25 >= 0;
1 - v49 + v28 + v35 >= 0;
1 - v32 + v20 + v10 >= 0;
v15 + 1 - v11 + v42 >= 0;
v28 + 1 - v36 + 1 - v26 >= 0;
v33 + 1 - v43 + v47 >= 0;
v38 + v40 + v46 >= 0;
1 - v30 + 1 - v50 + 1 - v37 >= 0;
1 - v50 + 1 - v6 + 1 - v4 >= 0;
1 - v11 + v7 + v21 >= 0;
v28 + v46 + 1 - v2 >= 0;
1 - v43 + v40 + 1 - v32 >= 0;
1 - v5 + 1 - v41 + 1 - v49 >= 0;
1 - v35 + v30 + v46 >= 0;
v24 + 1 - v32 + v44 >= 0;
v45 + 1 - v40 + 1 - v4 >= 0;
1 - v12 + 1 - v32 + 1 - v28 >= 0;
1 - v5 + v33 + v26 >= 0;
v30 + v42 + 1 - v11 >= 0;
1 - v41 + v44 + v17 >= 0;
1 - v38 + v5 + 1 - v50 >= 0;
v37 + 1 - v36 + v23 >= 0;
v41 + 1 - v39 + v48 >= 0;
1 - v31 + 1 - v14 + v2 >= 0;
1 - v27 + v23 + v7 >= 0;
v4 + 1 - v45 + 1 - v22 >= 0;
v45 + 1 - v22 + v32 >= 0;
1 - v33 + 1 - v28 + 1 - v5 >= 0;
1 - v41 + v24 + 1 - v3 >= 0;
v6 + 1 - v42 + v8 >= 0;
v29 + 1 - v37 + 1 - v9 >= 0;
1 - v47 + v35 + v16 >= 0;
1 - v44 + v35 + v29 >= 0;
1 - v38 + 1 - v5 + v46 >= 0;
v26 + 1 - v2 + 1 - v33 >= 0;
1 - v42 + v23 + 1 - v6 >= 0;
v39 + 1 - v47 + v15 >= 0;
v10 + 1 - v33 + v46 >= 0;
1 - v46 + 1 - v2 + v13 >= 0;
1 - v12 + v50 + v25 >= 0;
1 - v41 + 1 - v5 + 1 - v33 >= 0;
v45 + v35 + 1 - v42 >= 0;
v26 + v10 + v23 >= 0;
1 - v38 + 1 - v13 + v22 >= 0;
1 - v23 + v11 + 1 - v20 >= 0;
1 - v8 + 1 - v45 + 1 - v36 >= 0;
1 - v36 + 1 - v34 + v17 >= 0;
1 - v17 + 1 - v19 + 1 - v26 >= 0;
1 - v10 + 1 - v27 + v6 >= 0;
v1 + 1 - v50 + v15 >= 0;
1 - v2 + 1 - v5 + v12 >= 0;
1 - v20 + v31 + 1 - v36 >= 0;
1 - v2 + v25 + 1 - v48 >= 0;
v20 + v24 + 1 - v14 >= 0;
1 - v29 + v5 + 1 - v39 >= 0;
v11 + v26 + 1 - v41 >= 0;
v25 + v32 + v17 >= 0;
1 - v39 + 1 - v20 + v48 >= 0;
1 - v23 + 1 - v17 + 1 - v36 >= 0;
v25 + v21 + v44 >= 0;
1 - v50 + 1 - v24 + v44 >= 0;
1 - v26 + 1 - v21 + v39 >= 0;
v15 + v19 + v25 >= 0;
v25 + v27 + 1 - v38 >= 0;
v49 + v37 + v43 >= 0;
1 - v50 + 1 - v36 + v4 >= 0;
v14 + 1 - v4 + v48 >= 0;
1 - v20 + v3 + 1 - v28 >= 0;
v7 + 1 - v35 + v37 >= 0;
1 - v15 + 1 - v33 + v8 >= 0;
v33 + 1 - v12 + 1 - v21 >= 0;
1 - v36 + 1 - v48 + 1 - v28 >= 0;
1 - v10 + 1 - v35 + v9 >= 0;
v49 + v27 + v44 >= 0;
1 - v29 + 1 - v6 + 1 - v23 >= 0;
v3 + 1 - v22 + v11 >= 0;
1 - v4 + v28 + 1 - v3 >= 0;
v13 + v27 + v19 >= 0;
0 <= v1 <= 1;
0 <= v2 <= 1;
0 <= v3 <= 1;
0 <= v4 <= 1;
0 <= v5 <= 1;
0 <= v6 <= 1;
0 <= v7 <= 1;
0 <= v8 <= 1;
0 <= v9 <= 1;
0 <= v10 <= 1;
0 <= v11 <= 1;
0 <= v12 <= 1;
0 <= v13 <= 1;
0 <= v14 <= 1;
0 <= v15 <= 1;
0 <= v16 <= 1;
0 <= v17 <= 1;
0 <= v18 <= 1;
0 <= v19 <= 1;
0 <= v20 <= 1;
0 <= v21 <= 1;
0 <= v22 <= 1;
0 <= v23 <= 1;
0 <= v24 <= 1;
0 <= v25 <= 1;
0 <= v26 <= 1;
0 <= v27 <= 1;
0 <= v28 <= 1;
0 <= v29 <= 1;
0 <= v30 <= 1;
0 <= v31 <= 1;
0 <= v32 <= 1;
0 <= v33 <= 1;
0 <= v34 <= 1;
0 <= v35 <= 1;
0 <= v36 <= 1;
0 <= v37 <= 1;
0 <= v38 <= 1;
0 <= v39 <= 1;
0 <= v40 <= 1;
0 <= v41 <= 1;
0 <= v42 <= 1;
0 <= v43 <= 1;
0 <= v44 <= 1;
0 <= v45 <= 1;
0 <= v46 <= 1;
0 <= v47 <= 1;
0 <= v48 <= 1;
0 <= v49 <= 1;
0 <= v50 <= 1;
